language Essence 1.3

letting blksize_delta be
        function(1 --> 10, 2 --> 10, 3 --> 10, 4 --> 10, 5 --> 10, 6 --> 10, 7 --> 10, 8 --> 10, 9 --> 10, 10 --> 10,
                 11 --> 10, 12 --> 10, 13 --> 10, 14 --> 10, 15 --> 10, 16 --> 10, 17 --> 10, 18 --> 10, 19 --> 10,
                 20 --> 10, 21 --> 10, 22 --> 10, 23 --> 10, 24 --> 10, 25 --> 10, 26 --> 10, 27 --> 10, 28 --> 10,
                 29 --> 10, 30 --> 10, 31 --> 10, 32 --> 10, 33 --> 10, 34 --> 10, 35 --> 10, 36 --> 10, 37 --> 10,
                 38 --> 10, 39 --> 10, 40 --> 10, 41 --> 10, 42 --> 10, 43 --> 10)
letting maxcars be
        function(1 --> 9, 2 --> 9, 3 --> 9, 4 --> 9, 5 --> 9, 6 --> 9, 7 --> 9, 8 --> 9, 9 --> 10, 10 --> 9, 11 --> 9,
                 12 --> 10, 13 --> 9, 14 --> 9, 15 --> 10, 16 --> 9, 17 --> 9, 18 --> 9, 19 --> 9, 20 --> 9, 21 --> 9,
                 22 --> 9, 23 --> 9, 24 --> 9, 25 --> 9, 26 --> 9, 27 --> 9, 28 --> 9, 29 --> 9, 30 --> 9, 31 --> 10,
                 32 --> 9, 33 --> 9, 34 --> 9, 35 --> 9, 36 --> 9, 37 --> 9, 38 --> 9, 39 --> 9, 40 --> 9, 41 --> 9,
                 42 --> 9, 43 --> 10)
letting n_cars be 162
letting n_classes be 18
letting n_options be 43
letting quantity be
        function(1 --> 5, 2 --> 10, 3 --> 5, 4 --> 10, 5 --> 9, 6 --> 10, 7 --> 6, 8 --> 7, 9 --> 10, 10 --> 10,
                 11 --> 10, 12 --> 10, 13 --> 10, 14 --> 10, 15 --> 10, 16 --> 10, 17 --> 10, 18 --> 10)
letting usage be
        relation((1, 7), (1, 15), (2, 4), (2, 9), (2, 10), (2, 13), (2, 14), (2, 27), (2, 34), (2, 38), (3, 4), (3, 21),
                 (3, 30), (3, 34), (3, 35), (4, 1), (4, 2), (4, 3), (4, 14), (4, 27), (4, 41), (4, 43), (5, 22), (6, 9),
                 (6, 18), (6, 21), (7, 2), (7, 11), (7, 28), (7, 29), (7, 34), (7, 38), (8, 14), (8, 23), (8, 26),
                 (8, 35), (9, 1), (9, 42), (10, 3), (10, 10), (10, 13), (10, 18), (10, 29), (10, 37), (11, 1), (11, 11),
                 (11, 14), (11, 18), (11, 34), (11, 36), (11, 42), (12, 40), (13, 10), (13, 12), (13, 14), (13, 16),
                 (13, 18), (13, 33), (13, 41), (14, 9), (14, 11), (14, 30), (14, 31), (14, 40), (14, 41), (15, 8),
                 (15, 17), (15, 20), (15, 24), (15, 25), (15, 39), (15, 40), (16, 1), (16, 10), (16, 12), (16, 19),
                 (16, 26), (16, 33), (17, 6), (17, 15), (17, 22), (17, 28), (17, 29), (17, 31), (17, 38), (17, 43),
                 (18, 5), (18, 6), (18, 11), (18, 32), (18, 38), (18, 41))
$ Visualisation for usage
$  1  7
$  1 15
$  2  4
$  2  9
$  2 10
$  2 13
$  2 14
$  2 27
$  2 34
$  2 38
$  3  4
$  3 21
$  3 30
$  3 34
$  3 35
$  4  1
$  4  2
$  4  3
$  4 14
$  4 27
$  4 41
$  4 43
$  5 22
$  6  9
$  6 18
$  6 21
$  7  2
$  7 11
$  7 28
$  7 29
$  7 34
$  7 38
$  8 14
$  8 23
$  8 26
$  8 35
$  9  1
$  9 42
$ 10  3
$ 10 10
$ 10 13
$ 10 18
$ 10 29
$ 10 37
$ 11  1
$ 11 11
$ 11 14
$ 11 18
$ 11 34
$ 11 36
$ 11 42
$ 12 40
$ 13 10
$ 13 12
$ 13 14
$ 13 16
$ 13 18
$ 13 33
$ 13 41
$ 14  9
$ 14 11
$ 14 30
$ 14 31
$ 14 40
$ 14 41
$ 15  8
$ 15 17
$ 15 20
$ 15 24
$ 15 25
$ 15 39
$ 15 40
$ 16  1
$ 16 10
$ 16 12
$ 16 19
$ 16 26
$ 16 33
$ 17  6
$ 17 15
$ 17 22
$ 17 28
$ 17 29
$ 17 31
$ 17 38
$ 17 43
$ 18  5
$ 18  6
$ 18 11
$ 18 32
$ 18 38
$ 18 41

